language ESSENCE' 1.0

letting pos_FunctionND be [[3, 5; int(1..2)], [1, 4; int(1..2)], [2, 6; int(1..2)]; int(1..3)]
$ Visualisation for pos_FunctionND
$ 3 5
$ 1 4
$ 2 6

letting seq_ExplicitBounded_Length be 6
letting seq_ExplicitBounded_Values be [2, 3, 1, 2, 1, 3; int(1..6)]
